(declare-const c_0 Real)
(declare-const c_1 Real)
(declare-const c_2 Real)
(declare-const c_3 Real)
(declare-const c_4 Real)
(declare-const c_5 Real)
(declare-const c_6 Real)
(declare-const c_7 Real)
(declare-const c_8 Real)
(declare-const c_9 Real)
(declare-const c_10 Real)
(declare-const c_11 Real)
(declare-const c_12 Real)
(declare-const c_13 Real)
(declare-const c_14 Real)
(declare-const c_15 Real)
(declare-const c_16 Real)
(declare-const c_17 Real)
(declare-const c_18 Real)
(declare-const c_19 Real)
(declare-const s_0 Real)
(declare-const s_1 Real)
(declare-const s_2 Real)
(declare-const s_3 Real)
(declare-const s_4 Real)
(declare-const s_5 Real)
(declare-const s_6 Real)
(declare-const s_7 Real)
(declare-const s_8 Real)
(declare-const s_9 Real)
(declare-const s_10 Real)
(declare-const s_11 Real)
(declare-const s_12 Real)
(declare-const s_13 Real)
(declare-const s_14 Real)
(declare-const s_15 Real)
(declare-const s_16 Real)
(declare-const s_17 Real)
(declare-const s_18 Real)
(declare-const s_19 Real)
(assert (forall ((res Real) (xtmp Real) (x Real) (restmp Real) ) (=> (and (>= (+ (* 1024 1) (* 1 res ) ) 0) (>= (+ (* 1023 1) (* (- 1) res ) ) 0) (>= (+ (* 1024 1) (* 1 xtmp ) ) 0) (>= (+ (* 1023 1) (* (- 1) xtmp ) ) 0) (>= (+ (* 1024 1) (* 1 x ) ) 0) (>= (+ (* 1023 1) (* (- 1) x ) ) 0) (>= (+ (* 1024 1) (* 1 restmp ) ) 0) (>= (+ (* 1023 1) (* (- 1) restmp ) ) 0) ) (>= (+ (* 1 res s_1 ) (* 1 restmp s_2 ) (* 1 s_0 ) (* 1 s_3 x ) (* 1 s_4 xtmp ) ) 0) )))
(assert (forall ((res Real) (xtmp Real) (x Real) (restmp Real) ) (=> (and (>= (+ (* 1024 1) (* 1 res ) ) 0) (>= (+ (* 1023 1) (* (- 1) res ) ) 0) (>= (+ (* 1024 1) (* 1 xtmp ) ) 0) (>= (+ (* 1023 1) (* (- 1) xtmp ) ) 0) (>= (+ (* 1024 1) (* 1 x ) ) 0) (>= (+ (* 1023 1) (* (- 1) x ) ) 0) (>= (+ (* 1024 1) (* 1 restmp ) ) 0) (>= (+ (* 1023 1) (* (- 1) restmp ) ) 0) ) (>= (+ (* 1 c_0 ) (* 1 c_1 res ) (* 1 c_2 restmp ) (* 1 c_3 x ) (* 1 c_4 xtmp ) ) 0) )))
(assert (forall ((res Real) (xtmp Real) (x Real) (restmp Real) ) (=> (and (>= (+ (* 1023 1) (* (- 1) restmp ) ) 0) (>= (+ (* 1024 1) (* 1 restmp ) ) 0) (>= (+ (* 1023 1) (* (- 1) x ) ) 0) (>= (+ (* 1024 1) (* 1 x ) ) 0) (>= (+ (* 1023 1) (* (- 1) xtmp ) ) 0) (>= (+ (* 1024 1) (* 1 xtmp ) ) 0) (>= (+ (* 1023 1) (* (- 1) res ) ) 0) (>= (+ (* 1024 1) (* 1 res ) ) 0) (>= (+ (* 1 res s_1 ) (* 1 restmp s_2 ) (* 1 s_0 ) (* 1 s_3 x ) (* 1 s_4 xtmp ) ) 0) ) (>= (+ (* 1 restmp s_12 ) (* 1 s_10 ) (* 1 s_13 x ) (* 1 s_14 xtmp ) ) 0) )))
(assert (forall ((res Real) (xtmp Real) (x Real) (restmp Real) ) (=> (and (>= (+ (* 1023 1) (* (- 1) restmp ) ) 0) (>= (+ (* 1024 1) (* 1 restmp ) ) 0) (>= (+ (* 1023 1) (* (- 1) x ) ) 0) (>= (+ (* 1024 1) (* 1 x ) ) 0) (>= (+ (* 1023 1) (* (- 1) xtmp ) ) 0) (>= (+ (* 1024 1) (* 1 xtmp ) ) 0) (>= (+ (* 1023 1) (* (- 1) res ) ) 0) (>= (+ (* 1024 1) (* 1 res ) ) 0) (>= (+ (* 1 res s_1 ) (* 1 restmp s_2 ) (* 1 s_0 ) (* 1 s_3 x ) (* 1 s_4 xtmp ) ) 0) ) (>= (+ (* 1 c_10 ) (* 1 c_12 restmp ) (* 1 c_13 x ) (* 1 c_14 xtmp ) ) 0) )))
(assert (forall ((res Real) (xtmp Real) (x Real) (restmp Real) ) (=> (and (>= (+ (* 1023 1) (* (- 1) restmp ) ) 0) (>= (+ (* 1024 1) (* 1 restmp ) ) 0) (>= (+ (* 1023 1) (* (- 1) x ) ) 0) (>= (+ (* 1024 1) (* 1 x ) ) 0) (>= (+ (* 1023 1) (* (- 1) xtmp ) ) 0) (>= (+ (* 1024 1) (* 1 xtmp ) ) 0) (>= (+ (* 1023 1) (* (- 1) res ) ) 0) (>= (+ (* 1024 1) (* 1 res ) ) 0) (>= (+ (* 1 res s_1 ) (* 1 restmp s_2 ) (* 1 s_0 ) (* 1 s_3 x ) (* 1 s_4 xtmp ) ) 0) ) (>= (+ (* (- 1) 1) (* 1 c_0 ) (* 1 c_1 res ) (* (- 1) c_10 ) (* (- 1) c_12 restmp ) (* (- 1) c_13 x ) (* (- 1) c_14 xtmp ) (* 1 c_2 restmp ) (* 1 c_3 x ) (* 1 c_4 xtmp ) ) 0) )))
(assert (forall ((res Real) (xtmp Real) (x Real) (restmp Real) ) (=> (and (>= (+ (* (- 2) 1) (* 1 xtmp ) ) 0) (>= (+ (* (- 2) 1) (* 1 x ) (* (- 1) xtmp ) ) 0) (>= (* 1 xtmp ) 0) (>= (* 1 res ) 0) (>= (+ (* (- 2) 1) (* (- 2) restmp ) (* 1 x ) (* (- 1) xtmp ) ) 0) (>= (+ (* 2 1) (* 2 restmp ) (* (- 1) x ) (* 1 xtmp ) ) 0) (>= (+ (* 1 res s_6 ) (* 1 restmp s_7 ) (* 1 s_5 ) (* 1 s_8 x ) (* 1 s_9 xtmp ) ) 0) ) (>= (+ (* 1 res s_6 ) (* 1 restmp s_7 ) (* 1 s_5 ) (* 1 s_7 ) (* 1 s_8 x ) (* (- 2) s_9 ) (* 1 s_9 xtmp ) ) 0) )))
(assert (forall ((res Real) (xtmp Real) (x Real) (restmp Real) ) (=> (and (>= (+ (* (- 2) 1) (* 1 xtmp ) ) 0) (>= (+ (* (- 2) 1) (* 1 x ) (* (- 1) xtmp ) ) 0) (>= (* 1 xtmp ) 0) (>= (* 1 res ) 0) (>= (+ (* (- 2) 1) (* (- 2) restmp ) (* 1 x ) (* (- 1) xtmp ) ) 0) (>= (+ (* 2 1) (* 2 restmp ) (* (- 1) x ) (* 1 xtmp ) ) 0) (>= (+ (* 1 res s_6 ) (* 1 restmp s_7 ) (* 1 s_5 ) (* 1 s_8 x ) (* 1 s_9 xtmp ) ) 0) ) (>= (+ (* 1 c_5 ) (* 1 c_6 res ) (* 1 c_7 ) (* 1 c_7 restmp ) (* 1 c_8 x ) (* (- 2) c_9 ) (* 1 c_9 xtmp ) ) 0) )))
(assert (forall ((res Real) (xtmp Real) (x Real) (restmp Real) ) (=> (and (>= (+ (* (- 2) 1) (* 1 xtmp ) ) 0) (>= (+ (* (- 2) 1) (* 1 x ) (* (- 1) xtmp ) ) 0) (>= (* 1 xtmp ) 0) (>= (* 1 res ) 0) (>= (+ (* (- 2) 1) (* (- 2) restmp ) (* 1 x ) (* (- 1) xtmp ) ) 0) (>= (+ (* 2 1) (* 2 restmp ) (* (- 1) x ) (* 1 xtmp ) ) 0) (>= (+ (* 1 res s_6 ) (* 1 restmp s_7 ) (* 1 s_5 ) (* 1 s_8 x ) (* 1 s_9 xtmp ) ) 0) ) (>= (+ (* (- 1) 1) (* (- 1) c_7 ) (* 2 c_9 ) ) 0) )))
(assert (forall ((res Real) (xtmp Real) (x Real) (restmp Real) ) (=> (and (>= (+ (* 1 1) (* (- 1) xtmp ) ) 0) (>= (+ (* (- 2) 1) (* 1 x ) (* (- 1) xtmp ) ) 0) (>= (* 1 xtmp ) 0) (>= (* 1 res ) 0) (>= (+ (* (- 2) 1) (* (- 2) restmp ) (* 1 x ) (* (- 1) xtmp ) ) 0) (>= (+ (* 2 1) (* 2 restmp ) (* (- 1) x ) (* 1 xtmp ) ) 0) (>= (+ (* 1 res s_6 ) (* 1 restmp s_7 ) (* 1 s_5 ) (* 1 s_8 x ) (* 1 s_9 xtmp ) ) 0) ) (>= (+ (* 1 res s_11 ) (* 1 restmp s_12 ) (* 1 s_10 ) (* 1 s_11 ) (* 1 s_13 ) (* 1 s_13 xtmp ) (* 1 s_14 xtmp ) ) 0) )))
(assert (forall ((res Real) (xtmp Real) (x Real) (restmp Real) ) (=> (and (>= (+ (* 1 1) (* (- 1) xtmp ) ) 0) (>= (+ (* (- 2) 1) (* 1 x ) (* (- 1) xtmp ) ) 0) (>= (* 1 xtmp ) 0) (>= (* 1 res ) 0) (>= (+ (* (- 2) 1) (* (- 2) restmp ) (* 1 x ) (* (- 1) xtmp ) ) 0) (>= (+ (* 2 1) (* 2 restmp ) (* (- 1) x ) (* 1 xtmp ) ) 0) (>= (+ (* 1 res s_6 ) (* 1 restmp s_7 ) (* 1 s_5 ) (* 1 s_8 x ) (* 1 s_9 xtmp ) ) 0) ) (>= (+ (* 1 c_10 ) (* 1 c_11 ) (* 1 c_11 res ) (* 1 c_12 restmp ) (* 1 c_13 ) (* 1 c_13 xtmp ) (* 1 c_14 xtmp ) ) 0) )))
(assert (forall ((res Real) (xtmp Real) (x Real) (restmp Real) ) (=> (and (>= (+ (* 1 1) (* (- 1) xtmp ) ) 0) (>= (+ (* (- 2) 1) (* 1 x ) (* (- 1) xtmp ) ) 0) (>= (* 1 xtmp ) 0) (>= (* 1 res ) 0) (>= (+ (* (- 2) 1) (* (- 2) restmp ) (* 1 x ) (* (- 1) xtmp ) ) 0) (>= (+ (* 2 1) (* 2 restmp ) (* (- 1) x ) (* 1 xtmp ) ) 0) (>= (+ (* 1 res s_6 ) (* 1 restmp s_7 ) (* 1 s_5 ) (* 1 s_8 x ) (* 1 s_9 xtmp ) ) 0) ) (>= (+ (* (- 1) 1) (* (- 1) c_10 ) (* (- 1) c_11 ) (* (- 1) c_11 res ) (* (- 1) c_12 restmp ) (* (- 1) c_13 ) (* (- 1) c_13 xtmp ) (* (- 1) c_14 xtmp ) (* 1 c_5 ) (* 1 c_6 res ) (* 1 c_7 restmp ) (* 1 c_8 x ) (* 1 c_9 xtmp ) ) 0) )))
(assert (forall ((res Real) (xtmp Real) (x Real) (restmp Real) ) (=> (and (>= (+ (* (- 2) 1) (* 1 x ) ) 0) (>= (* 1 res ) 0) (>= (+ (* 1 res s_11 ) (* 1 restmp s_12 ) (* 1 s_10 ) (* 1 s_13 x ) (* 1 s_14 xtmp ) ) 0) ) (>= (+ (* 1 res s_6 ) (* 1 s_5 ) (* 1 s_8 x ) (* (- 2) s_9 ) (* 1 s_9 x ) ) 0) )))
(assert (forall ((res Real) (xtmp Real) (x Real) (restmp Real) ) (=> (and (>= (+ (* (- 2) 1) (* 1 x ) ) 0) (>= (* 1 res ) 0) (>= (+ (* 1 res s_11 ) (* 1 restmp s_12 ) (* 1 s_10 ) (* 1 s_13 x ) (* 1 s_14 xtmp ) ) 0) ) (>= (+ (* 1 c_5 ) (* 1 c_6 res ) (* 1 c_8 x ) (* (- 2) c_9 ) (* 1 c_9 x ) ) 0) )))
(assert (forall ((res Real) (xtmp Real) (x Real) (restmp Real) ) (=> (and (>= (+ (* (- 2) 1) (* 1 x ) ) 0) (>= (* 1 res ) 0) (>= (+ (* 1 res s_11 ) (* 1 restmp s_12 ) (* 1 s_10 ) (* 1 s_13 x ) (* 1 s_14 xtmp ) ) 0) ) (>= (+ (* (- 1) 1) (* 1 c_10 ) (* 1 c_11 res ) (* 1 c_12 restmp ) (* 1 c_13 x ) (* 1 c_14 xtmp ) (* (- 1) c_5 ) (* (- 1) c_6 res ) (* (- 1) c_8 x ) (* 2 c_9 ) (* (- 1) c_9 x ) ) 0) )))
(assert (forall ((res Real) (xtmp Real) (x Real) (restmp Real) ) (=> (and (>= (+ (* 1 1) (* (- 1) x ) ) 0) (>= (* 1 res ) 0) (>= (+ (* 1 res s_11 ) (* 1 restmp s_12 ) (* 1 s_10 ) (* 1 s_13 x ) (* 1 s_14 xtmp ) ) 0) ) (>= (+ (* 1 res s_16 ) (* 1 restmp s_17 ) (* 1 s_15 ) (* 1 s_18 x ) (* 1 s_19 xtmp ) ) 0) )))
(assert (forall ((res Real) (xtmp Real) (x Real) (restmp Real) ) (=> (and (>= (+ (* 1 1) (* (- 1) x ) ) 0) (>= (* 1 res ) 0) (>= (+ (* 1 res s_11 ) (* 1 restmp s_12 ) (* 1 s_10 ) (* 1 s_13 x ) (* 1 s_14 xtmp ) ) 0) ) (>= (+ (* 1 c_15 ) (* 1 c_16 res ) (* 1 c_17 restmp ) (* 1 c_18 x ) (* 1 c_19 xtmp ) ) 0) )))

(check-sat)
(get-model)
